files/upTests/___parts/expr_param/0003.eprime
language ESSENCE' 1.0

given n: int
find x_SetExplicitVarSize_tuple1: matrix indexed by [int(1..2)] of bool
find x_SetExplicitVarSize_tuple2:
        matrix indexed by [int(1..2)] of int(0..10 + n)
find x_SetOccurrence: matrix indexed by [int(0..10 + n)] of bool
find aux__5: int(0..10 + n)
such that
    x_SetExplicitVarSize_tuple1[1] /\ x_SetExplicitVarSize_tuple1[2]
    ->
    x_SetExplicitVarSize_tuple2[1] < x_SetExplicitVarSize_tuple2[2],
    8 < aux__5,
    x_SetExplicitVarSize_tuple1[1] <= x_SetExplicitVarSize_tuple1[2],
    (sum v__0 : int(0..10 + n) . x_SetOccurrence[v__0]) <= 2,
    x_SetOccurrence[2] = true,
    exists v__0 : int(1..2)
        . x_SetExplicitVarSize_tuple1[v__0]
          /\
          x_SetExplicitVarSize_tuple2[v__0] = aux__5,
    forAll v__0 : int(0..10 + n)
        . (exists v__1 : int(1..2)
               . x_SetExplicitVarSize_tuple1[v__1] /\ x_SetExplicitVarSize_tuple2[v__1] = v__0)
          <->
          x_SetOccurrence[v__0] = true,
    forAll v__0 : int(1..2)
        . x_SetExplicitVarSize_tuple1[v__0]
          ->
          x_SetExplicitVarSize_tuple2[v__0] <= aux__5
