files/upTests/___parts/expr_param/0003.eprime.solution
language ESSENCE' 1.0
$ minion Nodes: 2
$ minion TotalTime: 0.002342
$ Savile Row TotalTime: 0.629
letting aux__5 be 9
letting x_SetExplicitVarSize_tuple2 be [2, 9;int(1..2)]
letting x_SetOccurrence be [false, false, true, false, false, false, false, false, false, true, false, false, false, false;int(0..13)]
letting x_SetExplicitVarSize_tuple1 be [true, true;int(1..2)]
